Version identifier: 22.1.0.0 | 2022-03-09 | 1a383f8ce
CPXPARAM_Threads                                 1
CPXPARAM_MIP_Strategy_VariableSelect             3
CPXPARAM_TimeLimit                               600
Tried aggregator 1 time.
Reduced MIP has 2720 rows, 10800 columns, and 83019 nonzeros.
Reduced MIP has 6600 binaries, 4200 generals, 0 SOSs, and 0 indicators.
Presolve time = 0.04 sec. (33.71 ticks)
Found incumbent of value 194.538225 after 0.11 sec. (83.51 ticks)
Probing time = 0.01 sec. (4.62 ticks)
Tried aggregator 1 time.
Detecting symmetries...
Reduced MIP has 2720 rows, 10800 columns, and 83019 nonzeros.
Reduced MIP has 6600 binaries, 4200 generals, 0 SOSs, and 0 indicators.
Presolve time = 0.05 sec. (41.12 ticks)
Probing time = 0.01 sec. (4.62 ticks)
Clique table members: 306.
MIP emphasis: balance optimality and feasibility.
MIP search method: dynamic search.
Parallel mode: none, using 1 thread.
Root relaxation solution time = 4.91 sec. (4761.38 ticks)

        Nodes                                         Cuts/
   Node  Left     Objective  IInf  Best Integer    Best Bound    ItCnt     Gap

*     0+    0                          194.5382        0.0000           100.00%
      0     0        0.0000  2460      194.5382        0.0000    11002  100.00%
*     0+    0                           32.8312        0.0000           100.00%
*     0+    0                           32.2236        0.0000           100.00%
      0     0  -1.00000e+75     0       32.2236        0.0000    11002  100.00%
Detecting symmetries...
      0     2        0.0000   795       32.2236        0.0000    11002  100.00%
Elapsed time = 25.67 sec. (25094.24 ticks, tree = 0.01 MB, solutions = 3)
      1     3        0.0000  2029       32.2236        0.0000    29472  100.00%
      2     4        0.0000  1170       32.2236        0.0000    39868  100.00%
      3     5        0.0000  1885       32.2236        0.0000    51327  100.00%
      4     6        0.0000  1051       32.2236        0.0000    58158  100.00%
      5     7        0.0000  1034       32.2236        0.0000    64072  100.00%
      6     8       -0.0000  1075       32.2236        0.0000    66349  100.00%
      7     9        0.0000  2641       32.2236        0.0000    68498  100.00%
      8    10        0.0000  2220       32.2236        0.0000    70263  100.00%
      9    11       -0.0000  1075       32.2236        0.0000    70284  100.00%
     11    13        0.0000  1545       32.2236        0.0000    74898  100.00%
Elapsed time = 56.15 sec. (55281.82 ticks, tree = 0.19 MB, solutions = 3)
     12    14       -0.0000  1322       32.2236        0.0000    84695  100.00%
     13    15        0.0000  2655       32.2236        0.0000    90534  100.00%
     14    16        0.0000  1344       32.2236        0.0000    92330  100.00%
     17    19        0.0000  1262       32.2236        0.0000    93001  100.00%
     19    21       -0.0000  1126       32.2236        0.0000    99157  100.00%
     20    22        0.0000  1125       32.2236        0.0000    99170  100.00%
     22    24       -0.0000  2143       32.2236        0.0000   101364  100.00%
     24    26        0.0000  1342       32.2236        0.0000   112819  100.00%
     25    27       -0.0000  1124       32.2236        0.0000   113215  100.00%
     27    29        0.0000  1486       32.2236        0.0000   117805  100.00%
Elapsed time = 80.51 sec. (79382.13 ticks, tree = 0.58 MB, solutions = 3)
     28    30        0.0000  2062       32.2236        0.0000   122414  100.00%
     30    32        0.0000  1060       32.2236        0.0000   127182  100.00%
     31    33        0.0000   981       32.2236        0.0000   129572  100.00%
     32    34        0.0000  1698       32.2236        0.0000   151173  100.00%
     34    36       -0.0000  2468       32.2236        0.0000   161819  100.00%
     36    38       -0.0000   965       32.2236        0.0000   166990  100.00%
     39    41       -0.0000   952       32.2236        0.0000   168855  100.00%
     41    43        0.0000   867       32.2236        0.0000   182055  100.00%
     43    45        0.0000   873       32.2236        0.0000   185921  100.00%
     44    46        0.0000  1566       32.2236        0.0000   188496  100.00%
Elapsed time = 102.87 sec. (101197.19 ticks, tree = 0.97 MB, solutions = 3)
     46    48       -0.0000   857       32.2236        0.0000   195323  100.00%
     47    49        0.0000  1673       32.2236        0.0000   198183  100.00%
     50    52       -0.0000   858       32.2236        0.0000   203060  100.00%
     52    54        0.0000   829       32.2236        0.0000   206674  100.00%
     55    57       -0.0000  1046       32.2236        0.0000   221922  100.00%
     57    59        0.0000  1027       32.2236        0.0000   229929  100.00%
     58    60        0.0000  1283       32.2236        0.0000   234304  100.00%
     61    63        0.0000   948       32.2236        0.0000   236777  100.00%
     62    64       -0.0000  1057       32.2236        0.0000   244015  100.00%
     64    66        0.0000   962       32.2236        0.0000   250567  100.00%
Elapsed time = 121.63 sec. (118640.40 ticks, tree = 1.49 MB, solutions = 3)
     66    68        0.0000   685       32.2236        0.0000   257174  100.00%
     69    71        0.0000  1630       32.2236        0.0000   289263  100.00%
     70    72        0.0000  1701       32.2236        0.0000   290845  100.00%
     71    73        0.0000   690       32.2236        0.0000   305703  100.00%
     72    74       -0.0000  1923       32.2236        0.0000   315726  100.00%
     73    75       -0.0000   914       32.2236        0.0000   319090  100.00%
     74    76        0.0000   935       32.2236        0.0000   320418  100.00%
     75    77        0.0000   920       32.2236        0.0000   351182  100.00%
     76    78        0.0000  1593       32.2236        0.0000   353660  100.00%
     77    79       -0.0000  1589       32.2236        0.0000   357311  100.00%
Elapsed time = 153.13 sec. (148082.41 ticks, tree = 1.77 MB, solutions = 3)
     79    81        0.0000  1618       32.2236        0.0000   357957  100.00%
     82    84        0.0000  1604       32.2236        0.0000   358736  100.00%
     83    85       -0.0000  1888       32.2236        0.0000   360802  100.00%
     85    87       -0.0000  1623       32.2236        0.0000   363192  100.00%
     87    89        0.0000  1604       32.2236        0.0000   365066  100.00%
     89    91        0.0000  1501       32.2236        0.0000   366394  100.00%
     91    93        0.0000  1805       32.2236        0.0000   370153  100.00%
     94    96       -0.0000  1476       32.2236        0.0000   373091  100.00%
     96    98        0.0000  1415       32.2236        0.0000   374550  100.00%
     98   100       -0.0000  1389       32.2236        0.0000   375944  100.00%
Elapsed time = 165.82 sec. (161604.31 ticks, tree = 2.29 MB, solutions = 3)
    100   102       -0.0000  1833       32.2236        0.0000   379080  100.00%
    103   105       -0.0000  1382       32.2236        0.0000   380059  100.00%
    104   106       -0.0000  1674       32.2236        0.0000   383410  100.00%
    107   109       -0.0000  1408       32.2236        0.0000   384400  100.00%
    108   110        0.0000  1673       32.2236        0.0000   386435  100.00%
    111   113       -0.0000  1419       32.2236        0.0000   389441  100.00%
    113   115       -0.0000  1404       32.2236        0.0000   390740  100.00%
    115   117        0.0000  1298       32.2236        0.0000   394196  100.00%
    118   120        0.0000  1702       32.2236        0.0000   395931  100.00%
    120   122       -0.0000  1345       32.2236        0.0000   397454  100.00%
Elapsed time = 179.10 sec. (175636.57 ticks, tree = 2.81 MB, solutions = 3)
    121   123        0.0000  1315       32.2236        0.0000   399284  100.00%
    123   125        0.0000  1521       32.2236        0.0000   401663  100.00%
    125   127        0.0000  1724       32.2236        0.0000   403739  100.00%
    127   129        0.0000  1407       32.2236        0.0000   405514  100.00%
    128   130       -0.0000  1696       32.2236        0.0000   407782  100.00%
    131   133        0.0000  1575       32.2236        0.0000   410486  100.00%
    134   136        0.0000  1366       32.2236        0.0000   413158  100.00%
    136   138        0.0000  1231       32.2236        0.0000   414871  100.00%
    138   140        0.0000  1159       32.2236        0.0000   417794  100.00%
*   140+  140                            3.1119        0.0000           100.00%
    140   142        0.0000  1546        3.1119        0.0000   420861  100.00%
Elapsed time = 204.98 sec. (200474.87 ticks, tree = 3.33 MB, solutions = 4)
    143   145        0.0000  1565        3.1119        0.0000   425659  100.00%
    145   147       -0.0000  1507        3.1119        0.0000   428763  100.00%
    148   150        0.0000  1507        3.1119        0.0000   429188  100.00%
    150   152       -0.0000  1490        3.1119        0.0000   430842  100.00%
    152   154        0.0000  1495        3.1119        0.0000   432627  100.00%
    155   157        0.0000  1564        3.1119        0.0000   434875  100.00%
    157   159        0.0000  1461        3.1119        0.0000   437599  100.00%
    159   161        0.0000  1402        3.1119        0.0000   439455  100.00%
    162   164        0.0000  1405        3.1119        0.0000   440296  100.00%
    164   166       -0.0000  1352        3.1119        0.0000   442251  100.00%
Elapsed time = 228.51 sec. (222981.43 ticks, tree = 3.92 MB, solutions = 4)
    166   168        0.0000  1378        3.1119        0.0000   444032  100.00%
    169   171        0.0000  1412        3.1119        0.0000   446107  100.00%
    170   172       -0.0000  1483        3.1119        0.0000   446281  100.00%
    171   173        0.0000  1104        3.1119        0.0000   449121  100.00%
    173   175        0.0000  1105        3.1119        0.0000   451613  100.00%
    175   177        0.0000  1102        3.1119        0.0000   454637  100.00%
    177   179       -0.0000  1060        3.1119        0.0000   457708  100.00%
    179   181        0.0000  1064        3.1119        0.0000   460444  100.00%
    181   183        0.0000  1009        3.1119        0.0000   462913  100.00%
    186   188        0.0002   872        3.1119        0.0000   472927  100.00%
Elapsed time = 244.70 sec. (239325.59 ticks, tree = 4.47 MB, solutions = 4)
    192   194        0.0000   609        3.1119        0.0000   484268  100.00%
    198   200       -0.0000   655        3.1119        0.0000   497231  100.00%
*   200+  200                            0.0248        0.0000           100.00%
    204   206       -0.0000   629        0.0248        0.0000   509405  100.00%
    211   213        0.0000   572        0.0248        0.0000   519519  100.00%
    218   220        0.0000   597        0.0248        0.0000   533355  100.00%
    225   227        0.0000   475        0.0248        0.0000   546268  100.00%
    233   235       -0.0000   556        0.0248        0.0000   560331  100.00%
    240   242       -0.0000   464        0.0248        0.0000   571308  100.00%
    247   249        0.0003   734        0.0248        0.0000   581893  100.00%
    258   260        0.0008   714        0.0248        0.0000   589242  100.00%
Elapsed time = 289.63 sec. (281779.39 ticks, tree = 6.33 MB, solutions = 5)
    263   265        0.0019   485        0.0248        0.0000   602940  100.00%
    271   273        0.0025   395        0.0248        0.0000   614941  100.00%
    279   281        0.0031   649        0.0248        0.0000   627042  100.00%
    286   288        0.0050   427        0.0248        0.0000   640242  100.00%
    296   298        0.0067   585        0.0248        0.0000   650549  100.00%
*   300+  300                            0.0098        0.0000           100.00%
*   312   295      integral     0        0.0067        0.0000   655365  100.00%
    317   300       -0.0000  1614        0.0067        0.0000   662379  100.00%
    319   302        0.0000  1694        0.0067        0.0000   669209  100.00%
    320   303        0.0000  1634        0.0067        0.0000   669549  100.00%
    322   305       -0.0000  1501        0.0067        0.0000   676623  100.00%
Elapsed time = 353.38 sec. (339037.74 ticks, tree = 7.47 MB, solutions = 7)
    324   307        0.0000  1402        0.0067        0.0000   683668  100.00%
    326   309       -0.0000  1364        0.0067        0.0000   690773  100.00%
    328   311        0.0000  1307        0.0067        0.0000   697635  100.00%
    329   312       -0.0000  1214        0.0067        0.0000   705564  100.00%
    330   313       -0.0000  1356        0.0067        0.0000   711977  100.00%
    331   314       -0.0000  1442        0.0067        0.0000   720479  100.00%
    333   316        0.0000  1634        0.0067        0.0000   728537  100.00%
    334   317        0.0000  1492        0.0067        0.0000   740103  100.00%
    336   319       -0.0000  1397        0.0067        0.0000   747069  100.00%
    337   320       -0.0000  1455        0.0067        0.0000   755974  100.00%
Elapsed time = 396.24 sec. (380287.21 ticks, tree = 7.88 MB, solutions = 7)
    339   322       -0.0000  1698        0.0067        0.0000   764036  100.00%
    341   324       -0.0000  1369        0.0067        0.0000   773305  100.00%
    342   325       -0.0000  1661        0.0067        0.0000   787462  100.00%
    345   328       -0.0000  1573        0.0067        0.0000   801035  100.00%
    348   331        0.0000  1462        0.0067        0.0000   808778  100.00%
    350   333       -0.0000  1383        0.0067        0.0000   817964  100.00%
    352   335       -0.0000  1455        0.0067        0.0000   830078  100.00%
    356   339       -0.0000  1474        0.0067        0.0000   839928  100.00%
    358   341       -0.0000  1595        0.0067        0.0000   851124  100.00%
    361   344       -0.0000  1370        0.0067        0.0000   858998  100.00%
Elapsed time = 450.14 sec. (431332.86 ticks, tree = 8.41 MB, solutions = 7)
    365   348        0.0000  1348        0.0067        0.0000   868910  100.00%
    369   352        0.0000  1291        0.0067        0.0000   880849  100.00%
    371   354        0.0000  1364        0.0067        0.0000   890085  100.00%
    373   356        0.0000  1454        0.0067        0.0000   898333  100.00%
    375   358       -0.0000  1342        0.0067        0.0000   904357  100.00%
    378   361        0.0000  1429        0.0067        0.0000   917952  100.00%
    380   363        0.0000  1563        0.0067        0.0000   928407  100.00%
    385   368       -0.0000  1369        0.0067        0.0000   936155  100.00%
    389   372       -0.0000  1458        0.0067        0.0000   947971  100.00%
    393   376       -0.0000  1123        0.0067        0.0000   960379  100.00%
Elapsed time = 504.91 sec. (481338.50 ticks, tree = 9.23 MB, solutions = 7)
    397   380        0.0001  1208        0.0067        0.0000   979314  100.00%
    404   386        0.0000  1135        0.0067        0.0000  1007794  100.00%
    408   390       -0.0000  1148        0.0067        0.0000  1030868  100.00%
    412   394       -0.0000  1048        0.0067        0.0000  1044001  100.00%
    416   398        0.0000  1053        0.0067        0.0000  1053262  100.00%
    420   402       -0.0000  1115        0.0067        0.0000  1058136  100.00%
    425   407        0.0001   951        0.0067        0.0000  1072536  100.00%
    433   415       -0.0000   874        0.0067        0.0000  1076986  100.00%
    436   418        0.0004   977        0.0067        0.0000  1088340  100.00%
    440   422        0.0014   862        0.0067        0.0000  1099719  100.00%
Elapsed time = 557.66 sec. (528688.60 ticks, tree = 10.42 MB, solutions = 7)
    444   426        0.0016  1098        0.0067        0.0000  1109461  100.00%
    450   432        0.0022   884        0.0067        0.0000  1118753  100.00%
    454   436        0.0026   890        0.0067        0.0000  1128567  100.00%
    458   440        0.0056   961        0.0067        0.0000  1139545  100.00%
    464   446        0.0031   767        0.0067        0.0000  1140855  100.00%
    470   452       -0.0000  2042        0.0067        0.0000  1154846  100.00%

Root node processing (before b&c):
  Real time             =   25.64 sec. (25069.97 ticks)
Sequential b&c:
  Real time             =  574.37 sec. (540847.24 ticks)
                          ------------
Total (root+branch&cut) =  600.01 sec. (565917.21 ticks)
Violation-free sequence bound:	299
Unscheduled:	1
Status:	Feasible
Time:	599.97
Sequence:
	1
	15
	16
	18
	19
	14
	12
	9
	19
	16
	14
	15
	9
	3
	16
	5
	6
	11
	0
	0
	14
	11
	6
	0
	0
	11
	6
	5
	2
	19
	16
	5
	6
	11
	2
	8
	5
	1
	7
	0
	8
	1
	14
	18
	8
	19
	10
	6
	7
	17
	13
	15
	18
	1
	16
	18
	15
	11
	14
	0
	4
	17
	14
	5
	7
	17
	2
	6
	18
	1
	2
	0
	6
	11
	14
	0
	8
	1
	7
	5
	8
	17
	14
	7
	5
	17
	0
	14
	9
	3
	0
	15
	6
	3
	7
	0
	6
	11
	12
	7
	0
	1
	9
	2
	6
	16
	19
	14
	8
	18
	2
	1
	5
	8
	7
	3
	12
	6
	7
	8
	3
	12
	7
	6
	3
	8
	10
	4
	11
	6
	2
	18
	1
	18
	15
	16
	11
	6
	18
	15
	3
	2
	6
	18
	19
	12
	8
	14
	3
	9
	12
	16
	3
	6
	9
	10
	19
	8
	14
	13
	17
	6
	2
	14
	19
	0
	14
	2
	19
	9
	10
	4
	1
	0
	9
	0
	1
	13
	15
	4
	11
	10
	4
	12
	19
	13
	12
	18
	16
	1
	18
	12
	13
	19
	12
	13
	15
	3
	4
	10
	9
	3
	15
	4
	2
	1
	18
	12
	4
	19
	10
	13
	12
	19
	13
	10
	4
	19
	10
	4
	10
	19
	13
	12
	7
	17
	6
	9
	2
	1
	4
	12
	7
	8
	3
	6
	12
	13
	17
	18
	6
	2
	11
	12
	18
	14
	17
	7
	12
	18
	1
	16
	18
	15
	18
	3
	15
	13
	12
	3
	9
	10
	4
	17
	14
	7
	12
	17
	7
	6
	11
	15
	16
	4
	11
	5
	16
	15
	3
	18
	14
	8
	3
	12
	7
	6
	2
	19
	14
	8
	14
	17
	7
	5
	8
	1
	2
	18
	1
	15
Violation-free sequence:
	1
	15
	16
	18
	19
	14
	12
	9
	19
	16
	14
	15
	9
	3
	16
	5
	6
	11
	0
	0
	14
	11
	6
	0
	0
	11
	6
	5
	2
	19
	16
	5
	6
	11
	2
	8
	5
	1
	7
	0
	8
	1
	14
	18
	8
	19
	10
	6
	7
	17
	13
	15
	18
	1
	16
	18
	15
	11
	14
	0
	4
	17
	14
	5
	7
	17
	2
	6
	18
	1
	2
	0
	6
	11
	14
	0
	8
	1
	7
	5
	8
	17
	14
	7
	5
	17
	0
	14
	9
	3
	0
	15
	6
	3
	7
	0
	6
	11
	12
	7
	0
	1
	9
	2
	6
	16
	19
	14
	8
	18
	2
	1
	5
	8
	7
	3
	12
	6
	7
	8
	3
	12
	7
	6
	3
	8
	10
	4
	11
	6
	2
	18
	1
	18
	15
	16
	11
	6
	18
	15
	3
	2
	6
	18
	19
	12
	8
	14
	3
	9
	12
	16
	3
	6
	9
	10
	19
	8
	14
	13
	17
	6
	2
	14
	19
	0
	14
	2
	19
	9
	10
	4
	1
	0
	9
	0
	1
	13
	15
	4
	11
	10
	4
	12
	19
	13
	12
	18
	16
	1
	18
	12
	13
	19
	12
	13
	15
	3
	4
	10
	9
	3
	15
	4
	2
	1
	18
	12
	4
	19
	10
	13
	12
	19
	13
	10
	4
	19
	10
	4
	10
	19
	13
	12
	7
	17
	6
	9
	2
	1
	4
	12
	7
	8
	3
	6
	12
	13
	17
	18
	6
	2
	11
	12
	18
	14
	17
	7
	12
	18
	1
	16
	18
	15
	18
	3
	15
	13
	12
	3
	9
	10
	4
	17
	14
	7
	12
	17
	7
	6
	11
	15
	16
	4
	11
	5
	16
	15
	3
	18
	14
	8
	3
	12
	7
	6
	2
	19
	14
	8
	14
	17
	7
	5
	8
	1
	2
	18
	1
